(set-info :source |printed by MathSAT|)
(declare-fun call_intloopcounter.ite.next () Int)
(declare-fun call_greycounter.out.next () Bool)
(declare-fun call_greycounter.out () Bool)
(declare-fun call_intloopcounter.out.next () Bool)
(declare-fun call_greycounter.b () Bool)
(declare-fun call_greycounter.flby2.next () Bool)
(declare-fun b () Bool)
(declare-fun call_intloopcounter.time.next () Int)
(declare-fun _OK_ () Bool)
(declare-fun d.next () Bool)
(declare-fun call_greycounter.a () Bool)
(declare-fun d () Bool)
(declare-fun call_greycounter.flby2 () Bool)
(declare-fun b.next () Bool)
(declare-fun _OK_.next () Bool)
(declare-fun call_greycounter.a.next () Bool)
(declare-fun call_intloopcounter.out () Bool)
(declare-fun call_greycounter.flby.next () Bool)
(declare-fun call_greycounter.flby () Bool)
(declare-fun call_intloopcounter.time () Int)
(declare-fun call_greycounter.b.next () Bool)
(declare-fun call_intloopcounter.flby () Int)
(declare-fun call_intloopcounter.flby.next () Int)
(define-fun .def_177 () Bool (= call_intloopcounter.flby.next call_intloopcounter.time.next))
(define-fun .def_174 () Bool (= call_intloopcounter.time.next 2))
(define-fun .def_175 () Bool (= call_intloopcounter.out.next .def_174))
(define-fun .def_171 () Bool (= call_greycounter.flby2.next call_greycounter.b.next))
(define-fun .def_169 () Bool (= call_greycounter.flby.next call_greycounter.a.next))
(define-fun .def_166 () Bool (and call_greycounter.a.next call_greycounter.b.next))
(define-fun .def_167 () Bool (= call_greycounter.out.next .def_166))
(define-fun .def_162 () Bool (= d.next call_intloopcounter.out.next))
(define-fun .def_159 () Bool (= b.next call_greycounter.out.next))
(define-fun .def_156 () Bool (= b.next d.next))
(define-fun .def_157 () Bool (= _OK_.next .def_156))
(define-fun .def_160 () Bool (and .def_157 .def_159))
(define-fun .def_163 () Bool (and .def_160 .def_162))
(define-fun .def_168 () Bool (and .def_163 .def_167))
(define-fun .def_170 () Bool (and .def_168 .def_169))
(define-fun .def_172 () Bool (and .def_170 .def_171))
(define-fun .def_176 () Bool (and .def_172 .def_175))
(define-fun .def_178 () Bool (and .def_176 .def_177))
(define-fun .def_125 () Bool (= call_intloopcounter.time call_intloopcounter.flby))
(define-fun .def_121 () Bool (= call_intloopcounter.time 2))
(define-fun .def_122 () Bool (= call_intloopcounter.out .def_121))
(define-fun .def_118 () Bool (= call_greycounter.b call_greycounter.flby2))
(define-fun .def_115 () Bool (= call_greycounter.a call_greycounter.flby))
(define-fun .def_111 () Bool (and call_greycounter.a call_greycounter.b))
(define-fun .def_112 () Bool (= call_greycounter.out .def_111))
(define-fun .def_107 () Bool (= d call_intloopcounter.out))
(define-fun .def_104 () Bool (= b call_greycounter.out))
(define-fun .def_101 () Bool (= b d))
(define-fun .def_102 () Bool (= _OK_ .def_101))
(define-fun .def_105 () Bool (and .def_102 .def_104))
(define-fun .def_108 () Bool (and .def_105 .def_107))
(define-fun .def_113 () Bool (and .def_108 .def_112))
(define-fun .def_116 () Bool (and .def_113 .def_115))
(define-fun .def_119 () Bool (and .def_116 .def_118))
(define-fun .def_123 () Bool (and .def_119 .def_122))
(define-fun .def_126 () Bool (and .def_123 .def_125))
(define-fun .def_179 () Bool (and .def_126 .def_178))
(define-fun .def_151 () Bool (= call_intloopcounter.ite.next call_intloopcounter.flby.next))
(define-fun .def_143 () Bool (= call_intloopcounter.time 3))
(define-fun .def_146 () Bool (not .def_143))
(define-fun .def_145 () Bool (= call_intloopcounter.ite.next 0))
(define-fun .def_147 () Bool (or .def_145 .def_146))
(define-fun .def_140 () Int (* (- 1) call_intloopcounter.ite.next))
(define-fun .def_141 () Int (+ call_intloopcounter.time .def_140))
(define-fun .def_142 () Bool (= .def_141 (- 2)))
(define-fun .def_144 () Bool (or .def_142 .def_143))
(define-fun .def_148 () Bool (and .def_144 .def_147))
(define-fun .def_137 () Bool (= call_greycounter.a call_greycounter.flby2.next))
(define-fun .def_133 () Bool (not call_greycounter.b))
(define-fun .def_135 () Bool (= .def_133 call_greycounter.flby.next))
(define-fun .def_138 () Bool (and .def_135 .def_137))
(define-fun .def_149 () Bool (and .def_138 .def_148))
(define-fun .def_152 () Bool (and .def_149 .def_151))
(define-fun .def_180 () Bool (and .def_152 .def_179))
(assert .def_180)
